param n := 120;
param c := 3000
param : V : p w :=
   0	 387	 377
   1	 294	 284
   2	 349	 339
   3	 376	 366
   4	 270	 260
   5	 384	 374
   6	 479	 469
   7	 263	 253
   8	 288	 278
   9	 407	 397
  10	 302	 292
  11	 321	 311
  12	 439	 429
  13	 270	 260
  14	 321	 311
  15	 458	 448
  16	 263	 253
  17	 309	 299
  18	 438	 428
  19	 279	 269
  20	 313	 303
  21	 501	 491
  22	 261	 251
  23	 268	 258
  24	 367	 357
  25	 275	 265
  26	 388	 378
  27	 360	 350
  28	 330	 320
  29	 340	 330
  30	 463	 453
  31	 260	 250
  32	 307	 297
  33	 390	 380
  34	 270	 260
  35	 370	 360
  36	 481	 471
  37	 268	 258
  38	 281	 271
  39	 401	 391
  40	 300	 290
  41	 329	 319
  42	 475	 465
  43	 264	 254
  44	 291	 281
  45	 430	 420
  46	 264	 254
  47	 336	 326
  48	 414	 404
  49	 307	 297
  50	 309	 299
  51	 374	 364
  52	 310	 300
  53	 346	 336
  54	 380	 370
  55	 313	 303
  56	 337	 327
  57	 368	 358
  58	 279	 269
  59	 383	 373
  60	 381	 371
  61	 264	 254
  62	 385	 375
  63	 461	 451
  64	 267	 257
  65	 302	 292
  66	 390	 380
  67	 305	 295
  68	 335	 325
  69	 367	 357
  70	 283	 273
  71	 380	 370
  72	 369	 359
  73	 328	 318
  74	 333	 323
  75	 467	 457
  76	 272	 262
  77	 291	 281
  78	 451	 441
  79	 265	 255
  80	 314	 304
  81	 478	 468
  82	 267	 257
  83	 285	 275
  84	 501	 491
  85	 262	 252
  86	 267	 257
  87	 369	 359
  88	 276	 266
  89	 385	 375
  90	 469	 459
  91	 262	 252
  92	 299	 289
  93	 437	 427
  94	 262	 252
  95	 331	 321
  96	 471	 461
  97	 273	 263
  98	 286	 276
  99	 435	 425
 100	 296	 286
 101	 299	 289
 102	 370	 360
 103	 287	 277
 104	 373	 363
 105	 412	 402
 106	 307	 297
 107	 311	 301
 108	 465	 455
 109	 270	 260
 110	 295	 285
 111	 503	 493
 112	 260	 250
 113	 267	 257
 114	 388	 378
 115	 309	 299
 116	 333	 323
 117	 400	 390
 118	 295	 285
 119	 335	 325
;

set E :=
   0	   6
   0	  13
   0	  24
   0	  35
   0	  38
   0	  43
   0	  46
   0	  52
   0	  64
   0	  65
   0	  78
   0	  83
   0	  84
   0	  87
   0	  95
   0	 104
   0	 116
   1	  34
   1	  61
   1	  72
   1	  79
   1	  80
   1	  86
   1	 107
   2	   8
   2	  17
   2	  23
   2	  26
   2	  35
   2	  37
   2	  44
   2	  71
   2	  87
   2	  95
   2	 113
   2	 118
   3	   4
   3	  16
   3	  19
   3	  34
   3	  41
   3	  43
   3	  47
   3	  49
   3	  62
   3	  64
   3	  92
   3	  99
   4	  16
   4	  18
   4	  39
   4	  41
   4	  45
   4	  72
   4	  73
   4	  84
   4	  87
   4	  90
   4	  91
   4	  93
   4	  97
   4	 103
   5	  22
   5	  32
   5	  44
   5	  54
   5	  58
   5	  60
   5	  88
   5	  92
   5	  93
   5	 102
   5	 105
   5	 116
   6	  31
   6	  32
   6	  46
   6	  76
   6	  94
   6	  96
   6	  99
   6	 105
   7	  41
   7	  42
   7	  43
   7	  55
   7	  61
   7	  86
   7	 104
   7	 105
   7	 114
   7	 118
   8	  23
   8	  24
   8	  38
   8	  40
   8	  55
   8	  63
   8	  65
   8	  70
   8	  75
   8	  76
   8	  81
   8	  84
   8	  91
   8	  92
   8	 106
   8	 111
   8	 112
   8	 114
   8	 119
   9	  11
   9	  20
   9	  43
   9	  57
   9	  83
   9	 114
  10	  15
  10	  17
  10	  19
  10	  28
  10	  42
  10	  48
  10	  49
  10	  58
  10	  68
  10	  74
  10	  75
  10	  76
  10	  79
  10	  97
  10	 102
  10	 108
  10	 115
  11	  17
  11	  39
  11	  48
  11	  49
  11	  69
  11	  83
  11	  99
  11	 113
  12	  39
  12	  73
  12	  75
  12	  86
  12	  89
  12	  98
  12	 100
  12	 103
  12	 111
  12	 117
  13	  15
  13	  16
  13	  21
  13	  46
  13	  51
  13	  52
  13	  55
  13	  56
  13	  60
  13	  75
  13	  76
  13	  77
  13	 109
  13	 113
  13	 116
  14	  15
  14	  24
  14	  36
  14	  49
  14	  63
  14	  76
  14	  86
  14	 102
  14	 114
  15	  39
  15	  44
  15	  47
  15	  67
  15	  71
  15	  94
  15	 100
  15	 102
  15	 117
  15	 118
  16	  26
  16	  31
  16	  34
  16	  47
  16	  67
  16	  69
  16	  83
  16	  84
  16	  88
  16	  93
  16	 104
  16	 116
  17	  27
  17	  49
  17	  71
  17	  72
  17	  81
  17	  93
  17	 103
  17	 113
  17	 117
  18	  44
  18	  66
  18	  89
  18	 103
  18	 109
  19	  43
  19	  44
  19	  52
  19	  53
  19	  60
  19	  65
  19	  79
  19	  99
  19	 107
  19	 116
  19	 119
  20	  22
  20	  29
  20	  30
  20	  47
  20	  50
  20	  69
  20	  82
  20	  97
  20	 104
  20	 106
  20	 118
  21	  61
  21	  66
  21	  75
  21	  82
  21	 107
  21	 114
  21	 119
  22	  23
  22	  28
  22	  40
  22	  58
  22	  62
  22	  81
  22	  86
  22	  88
  22	  92
  22	  93
  22	  95
  22	 102
  22	 113
  23	  38
  23	  46
  23	  69
  23	  78
  23	  82
  23	 119
  24	  35
  24	  36
  24	  42
  24	  47
  24	  50
  24	  58
  24	  76
  24	  78
  24	  94
  24	 102
  24	 105
  24	 108
  24	 110
  25	  27
  25	  38
  25	  55
  25	  65
  25	 107
  25	 115
  26	  43
  26	  57
  26	  60
  26	  70
  26	  81
  26	  97
  26	 109
  26	 117
  27	  37
  27	  39
  27	  54
  27	  80
  27	  93
  27	  97
  27	 118
  28	  38
  28	  40
  28	  62
  28	  67
  28	  80
  28	  89
  28	 110
  28	 115
  29	  30
  29	  40
  29	  52
  29	  67
  29	  73
  29	  76
  29	  77
  29	  88
  30	  38
  30	  39
  30	  54
  30	  60
  30	  62
  30	  88
  30	  96
  30	 105
  30	 112
  30	 113
  30	 116
  31	  38
  31	  60
  31	  64
  31	  75
  31	  80
  31	  88
  31	  96
  31	  99
  31	 101
  31	 119
  32	  37
  32	  48
  32	  52
  32	  58
  32	  82
  32	  86
  32	 103
  32	 119
  33	  42
  33	  50
  33	  58
  33	  61
  33	  67
  33	  69
  33	  77
  33	  79
  33	  83
  33	 115
  33	 118
  34	  35
  34	  45
  34	  72
  34	  98
  34	 109
  34	 112
  35	  50
  35	  51
  35	  60
  35	  77
  35	  87
  35	  92
  35	 114
  36	  41
  36	  53
  36	  65
  36	  68
  36	  73
  36	  76
  36	  80
  36	  85
  36	  88
  36	  91
  36	  99
  36	 102
  37	  41
  37	  75
  37	  85
  37	  92
  38	  40
  38	  52
  38	  58
  38	  70
  38	  74
  38	  79
  38	  80
  38	  81
  39	  56
  39	  59
  39	  71
  39	  76
  39	 100
  39	 108
  39	 110
  39	 111
  39	 112
  39	 116
  40	  47
  40	  61
  40	  72
  40	  82
  40	  94
  40	 113
  41	  52
  41	  63
  41	  72
  41	  85
  41	  89
  41	  90
  41	  93
  41	 119
  42	  43
  42	  45
  42	  46
  42	  49
  42	  69
  42	  80
  42	  97
  42	 110
  42	 111
  43	  44
  43	  46
  43	  84
  43	 112
  43	 115
  44	  45
  44	  53
  44	  73
  44	  92
  44	 102
  44	 111
  45	  46
  45	  52
  45	  65
  45	  88
  45	  97
  45	  98
  45	  99
  45	 111
  45	 113
  46	  50
  46	  52
  46	  61
  46	  65
  46	  70
  46	  73
  46	  81
  46	  95
  46	 102
  46	 109
  46	 113
  46	 118
  47	  49
  47	  62
  47	  64
  47	  74
  47	  92
  47	  95
  47	 100
  47	 102
  47	 112
  47	 118
  48	  61
  48	  70
  48	  87
  48	  88
  48	  96
  48	  98
  48	 100
  48	 103
  49	  66
  49	  75
  49	  77
  49	  87
  49	 105
  49	 107
  49	 113
  50	  53
  50	  57
  50	  79
  50	 106
  51	  58
  51	  89
  51	  90
  51	 106
  51	 109
  52	  55
  52	  65
  52	  72
  52	  78
  52	  87
  52	  99
  52	 100
  52	 103
  52	 105
  52	 114
  52	 119
  53	  69
  53	  74
  53	  83
  53	 111
  54	  90
  54	  94
  54	  99
  54	 109
  55	  63
  55	  75
  55	  86
  55	  89
  55	  97
  55	  99
  55	 106
  55	 107
  55	 112
  56	  72
  56	  74
  56	  76
  56	  95
  56	  96
  56	 102
  57	  60
  57	  61
  57	  64
  57	  66
  57	  69
  57	  81
  57	  82
  57	  95
  57	 113
  58	  69
  58	  81
  58	  83
  58	  86
  58	  90
  58	  94
  58	  95
  58	 106
  59	  61
  59	  65
  59	  66
  59	  81
  59	  92
  59	  97
  59	  98
  59	 109
  59	 117
  60	  65
  60	  86
  60	 117
  61	  72
  61	  96
  61	  98
  61	 114
  61	 117
  62	  84
  62	  90
  62	 107
  63	  73
  63	  87
  63	  97
  63	  99
  63	 100
  63	 115
  63	 117
  64	  69
  64	  73
  64	 108
  64	 112
  64	 119
  65	  74
  65	  80
  65	  94
  65	  98
  65	 106
  66	  75
  66	  90
  66	  96
  66	 100
  66	 102
  66	 109
  66	 115
  67	  78
  67	  81
  67	  88
  68	  69
  68	  78
  68	 109
  69	  89
  69	 101
  69	 116
  70	  73
  70	  76
  70	  77
  70	  90
  70	  93
  70	 110
  71	  81
  71	  82
  71	 100
  71	 101
  71	 102
  71	 107
  71	 111
  71	 113
  72	  89
  72	  96
  72	 109
  73	  78
  73	  79
  73	  81
  73	  89
  73	  94
  73	  97
  73	 107
  73	 113
  73	 115
  74	  80
  74	  82
  74	  94
  74	 103
  74	 104
  76	  79
  76	  83
  76	 105
  76	 112
  76	 113
  77	 102
  77	 113
  77	 119
  78	  82
  78	  99
  78	 116
  79	  84
  79	  93
  80	  92
  80	  93
  80	  95
  80	  97
  80	 108
  80	 117
  80	 118
  82	  84
  82	  87
  82	  92
  82	 100
  82	 112
  83	  84
  83	  87
  83	  88
  83	  90
  83	  91
  84	  93
  84	  94
  84	 105
  84	 109
  84	 111
  84	 117
  84	 118
  85	  98
  85	 100
  85	 105
  85	 106
  85	 117
  86	 102
  86	 118
  87	 104
  87	 105
  88	  90
  88	  91
  88	  96
  88	 105
  88	 112
  89	 101
  89	 114
  89	 115
  90	 100
  90	 105
  91	  95
  91	  97
  91	 103
  91	 106
  91	 110
  92	  94
  92	  98
  92	 116
  93	 114
  93	 119
  94	 100
  94	 115
  96	 100
  97	 100
  97	 101
  97	 106
  97	 112
  98	 101
  98	 110
  98	 118
  99	 114
  99	 119
 100	 106
 100	 108
 100	 112
 100	 114
 100	 117
 100	 119
 101	 102
 101	 114
 102	 105
 102	 110
 102	 116
 102	 118
 103	 117
 103	 119
 104	 111
 107	 114
 107	 117
 107	 118
 113	 114
 114	 118
 116	 119
;
